c this file is generated by AddonSolver::addconstrains
c generated on Fri Mar 25 15:39:36 2016
p cnf 5924 1594
c this is 1st duplication
5353 5408 0
-5353 -5408 0
5354 5409 0
-5354 -5409 0
5356 5410 0
-5356 -5410 0
5358 5411 0
-5358 -5411 0
5360 5412 0
-5360 -5412 0
5362 5413 0
-5362 -5413 0
5364 5414 0
-5364 -5414 0
5366 5415 0
-5366 -5415 0
5368 5416 0
-5368 -5416 0
5370 5417 0
-5370 -5417 0
5372 5418 0
-5372 -5418 0
5374 5419 0
-5374 -5419 0
5376 5420 0
-5376 -5420 0
5378 5421 0
-5378 -5421 0
5380 5422 0
-5380 -5422 0
5382 5423 0
-5382 -5423 0
5384 5424 0
-5384 -5424 0
5386 5425 0
-5386 -5425 0
-5408 -5354 -5426 0
5408 5426 0
5354 5426 0
5355 5409 5427 0
-5355 -5427 0
-5409 -5427 0
5357 5409 5428 0
-5357 -5428 0
-5409 -5428 0
-5358 -5410 -5574 0
5358 5410 -5574 0
5358 -5410 5574 0
-5358 5410 5574 0
-5574 -5391 -5575 0
5574 5575 0
5391 5575 0
-5358 -5410 5576 0
5358 -5576 0
5410 -5576 0
5391 5577 0
-5391 -5577 0
5392 5578 0
-5392 -5578 0
-5578 -5577 -5579 0
5578 5579 0
5577 5579 0
5579 5576 5580 0
-5579 -5580 0
-5576 -5580 0
5410 5581 0
-5410 -5581 0
5358 5582 0
-5358 -5582 0
-5582 -5581 -5583 0
5582 5583 0
5581 5583 0
-5392 -5577 -5584 0
5392 5584 0
5577 5584 0
5584 5583 5585 0
-5584 -5585 0
-5583 -5585 0
5585 5580 5586 0
-5585 -5586 0
-5580 -5586 0
-5586 -5575 -5429 0
5586 5429 0
5575 5429 0
-5412 -5362 -5430 0
5412 5430 0
5362 5430 0
-5366 -5414 -5561 0
5366 5414 -5561 0
5366 -5414 5561 0
-5366 5414 5561 0
-5561 -5389 -5562 0
5561 5562 0
5389 5562 0
-5366 -5414 5563 0
5366 -5563 0
5414 -5563 0
5389 5564 0
-5389 -5564 0
5390 5565 0
-5390 -5565 0
-5565 -5564 -5566 0
5565 5566 0
5564 5566 0
5566 5563 5567 0
-5566 -5567 0
-5563 -5567 0
5414 5568 0
-5414 -5568 0
5366 5569 0
-5366 -5569 0
-5569 -5568 -5570 0
5569 5570 0
5568 5570 0
-5390 -5564 -5571 0
5390 5571 0
5564 5571 0
5571 5570 5572 0
-5571 -5572 0
-5570 -5572 0
5572 5567 5573 0
-5572 -5573 0
-5567 -5573 0
-5573 -5562 -5431 0
5573 5431 0
5562 5431 0
-5416 -5370 -5432 0
5416 5432 0
5370 5432 0
-5418 -5374 -5433 0
5418 5433 0
5374 5433 0
-5420 -5378 -5434 0
5420 5434 0
5378 5434 0
-5422 -5382 -5435 0
5422 5435 0
5382 5435 0
-5424 -5386 -5436 0
5424 5436 0
5386 5436 0
5359 5411 5437 0
-5359 -5437 0
-5411 -5437 0
5361 5411 5438 0
-5361 -5438 0
-5411 -5438 0
5363 5413 5439 0
-5363 -5439 0
-5413 -5439 0
5365 5413 5440 0
-5365 -5440 0
-5413 -5440 0
5367 5415 5441 0
-5367 -5441 0
-5415 -5441 0
-5415 -5369 -5600 0
5415 5369 -5600 0
5415 -5369 5600 0
-5415 5369 5600 0
-5600 -5395 -5601 0
5600 5601 0
5395 5601 0
-5415 -5369 5602 0
5415 -5602 0
5369 -5602 0
5395 5603 0
-5395 -5603 0
5396 5604 0
-5396 -5604 0
-5604 -5603 -5605 0
5604 5605 0
5603 5605 0
5605 5602 5606 0
-5605 -5606 0
-5602 -5606 0
5369 5607 0
-5369 -5607 0
5415 5608 0
-5415 -5608 0
-5608 -5607 -5609 0
5608 5609 0
5607 5609 0
-5396 -5603 -5610 0
5396 5610 0
5603 5610 0
5610 5609 5611 0
-5610 -5611 0
-5609 -5611 0
5611 5606 5612 0
-5611 -5612 0
-5606 -5612 0
-5612 -5601 -5442 0
5612 5442 0
5601 5442 0
5371 5417 5443 0
-5371 -5443 0
-5417 -5443 0
5373 5417 5444 0
-5373 -5444 0
-5417 -5444 0
5375 5419 5445 0
-5375 -5445 0
-5419 -5445 0
5377 5419 5446 0
-5377 -5446 0
-5419 -5446 0
5379 5421 5447 0
-5379 -5447 0
-5421 -5447 0
5381 5421 5448 0
-5381 -5448 0
-5421 -5448 0
5383 5423 5449 0
-5383 -5449 0
-5423 -5449 0
5385 5423 5450 0
-5385 -5450 0
-5423 -5450 0
5387 5425 5451 0
-5387 -5451 0
-5425 -5451 0
5388 5425 5452 0
-5388 -5452 0
-5425 -5452 0
-5426 -5429 -5430 -5431 -5432 -5433 -5434 -5435 -5436 5453 0
5426 -5453 0
5429 -5453 0
5430 -5453 0
5431 -5453 0
5432 -5453 0
5433 -5453 0
5434 -5453 0
5435 -5453 0
5436 -5453 0
5453 5454 0
-5453 -5454 0
5453 5455 0
-5453 -5455 0
5453 5401 0
-5453 -5401 0
-5454 -5426 -5456 0
5454 5426 -5456 0
5454 -5426 5456 0
-5454 5426 5456 0
-5454 -5429 -5457 0
5454 5429 -5457 0
5454 -5429 5457 0
-5454 5429 5457 0
-5454 -5430 -5458 0
5454 5430 -5458 0
5454 -5430 5458 0
-5454 5430 5458 0
-5454 -5431 -5459 0
5454 5431 -5459 0
5454 -5431 5459 0
-5454 5431 5459 0
-5454 -5432 -5460 0
5454 5432 -5460 0
5454 -5432 5460 0
-5454 5432 5460 0
-5454 -5433 -5461 0
5454 5433 -5461 0
5454 -5433 5461 0
-5454 5433 5461 0
-5353 -5455 -5462 0
5353 5462 0
5455 5462 0
-5454 -5434 -5463 0
5454 5434 -5463 0
5454 -5434 5463 0
-5454 5434 5463 0
-5455 -5356 -5464 0
5455 5464 0
5356 5464 0
-5454 -5435 -5465 0
5454 5435 -5465 0
5454 -5435 5465 0
-5454 5435 5465 0
-5455 -5360 -5466 0
5455 5466 0
5360 5466 0
-5454 -5436 -5467 0
5454 5436 -5467 0
5454 -5436 5467 0
-5454 5436 5467 0
-5455 -5364 -5468 0
5455 5468 0
5364 5468 0
-5455 -5368 -5469 0
5455 5469 0
5368 5469 0
-5455 -5372 -5470 0
5455 5470 0
5372 5470 0
-5455 -5376 -5471 0
5455 5471 0
5376 5471 0
-5455 -5380 -5472 0
5455 5472 0
5380 5472 0
-5455 -5384 -5473 0
5455 5473 0
5384 5473 0
-5427 -5456 -5626 0
5427 5456 -5626 0
5427 -5456 5626 0
-5427 5456 5626 0
-5626 -5399 -5627 0
5626 5627 0
5399 5627 0
-5427 -5456 5628 0
5427 -5628 0
5456 -5628 0
5399 5629 0
-5399 -5629 0
5400 5630 0
-5400 -5630 0
-5630 -5629 -5631 0
5630 5631 0
5629 5631 0
5631 5628 5632 0
-5631 -5632 0
-5628 -5632 0
5456 5633 0
-5456 -5633 0
5427 5634 0
-5427 -5634 0
-5634 -5633 -5635 0
5634 5635 0
5633 5635 0
-5400 -5629 -5636 0
5400 5636 0
5629 5636 0
5636 5635 5637 0
-5636 -5637 0
-5635 -5637 0
5637 5632 5638 0
-5637 -5638 0
-5632 -5638 0
-5638 -5627 -5474 0
5638 5474 0
5627 5474 0
-5456 -5428 -5475 0
5456 5475 0
5428 5475 0
-5457 -5437 -5476 0
5457 5476 0
5437 5476 0
-5458 -5439 -5477 0
5458 5477 0
5439 5477 0
-5459 -5441 -5478 0
5459 5478 0
5441 5478 0
-5460 -5443 -5479 0
5460 5479 0
5443 5479 0
-5461 -5445 -5480 0
5461 5480 0
5445 5480 0
-5463 -5447 -5481 0
5463 5481 0
5447 5481 0
-5465 -5449 -5482 0
5465 5482 0
5449 5482 0
-5451 -5467 -5613 0
5451 5467 -5613 0
5451 -5467 5613 0
-5451 5467 5613 0
-5613 -5397 -5614 0
5613 5614 0
5397 5614 0
-5451 -5467 5615 0
5451 -5615 0
5467 -5615 0
5397 5616 0
-5397 -5616 0
5398 5617 0
-5398 -5617 0
-5617 -5616 -5618 0
5617 5618 0
5616 5618 0
5618 5615 5619 0
-5618 -5619 0
-5615 -5619 0
5467 5620 0
-5467 -5620 0
5451 5621 0
-5451 -5621 0
-5621 -5620 -5622 0
5621 5622 0
5620 5622 0
-5398 -5616 -5623 0
5398 5623 0
5616 5623 0
5623 5622 5624 0
-5623 -5624 0
-5622 -5624 0
5624 5619 5625 0
-5624 -5625 0
-5619 -5625 0
-5625 -5614 -5483 0
5625 5483 0
5614 5483 0
-5457 -5438 -5484 0
5457 5484 0
5438 5484 0
-5458 -5440 -5485 0
5458 5485 0
5440 5485 0
-5459 -5442 -5486 0
5459 5486 0
5442 5486 0
-5460 -5444 -5487 0
5460 5487 0
5444 5487 0
-5461 -5446 -5488 0
5461 5488 0
5446 5488 0
-5463 -5448 -5489 0
5463 5489 0
5448 5489 0
-5465 -5450 -5490 0
5465 5490 0
5450 5490 0
-5467 -5452 -5491 0
5467 5491 0
5452 5491 0
-5474 -5476 -5477 -5478 -5479 -5480 -5481 -5482 -5483 5492 0
5474 -5492 0
5476 -5492 0
5477 -5492 0
5478 -5492 0
5479 -5492 0
5480 -5492 0
5481 -5492 0
5482 -5492 0
5483 -5492 0
5475 5493 0
-5475 -5493 0
5484 5494 0
-5484 -5494 0
5485 5495 0
-5485 -5495 0
5486 5496 0
-5486 -5496 0
5487 5497 0
-5487 -5497 0
5488 5498 0
-5488 -5498 0
5489 5499 0
-5489 -5499 0
5490 5500 0
-5490 -5500 0
5491 5501 0
-5491 -5501 0
5492 5502 0
-5492 -5502 0
5492 5503 0
-5492 -5503 0
5492 5402 0
-5492 -5402 0
-5502 -5474 -5504 0
5502 5474 -5504 0
5502 -5474 5504 0
-5502 5474 5504 0
-5502 -5476 -5505 0
5502 5476 -5505 0
5502 -5476 5505 0
-5502 5476 5505 0
-5502 -5477 -5506 0
5502 5477 -5506 0
5502 -5477 5506 0
-5502 5477 5506 0
-5502 -5478 -5507 0
5502 5478 -5507 0
5502 -5478 5507 0
-5502 5478 5507 0
-5355 -5503 -5508 0
5355 5508 0
5503 5508 0
-5502 -5479 -5509 0
5502 5479 -5509 0
5502 -5479 5509 0
-5502 5479 5509 0
-5359 -5503 -5587 0
5359 5503 -5587 0
5359 -5503 5587 0
-5359 5503 5587 0
-5587 -5393 -5588 0
5587 5588 0
5393 5588 0
-5359 -5503 5589 0
5359 -5589 0
5503 -5589 0
5393 5590 0
-5393 -5590 0
5394 5591 0
-5394 -5591 0
-5591 -5590 -5592 0
5591 5592 0
5590 5592 0
5592 5589 5593 0
-5592 -5593 0
-5589 -5593 0
5503 5594 0
-5503 -5594 0
5359 5595 0
-5359 -5595 0
-5595 -5594 -5596 0
5595 5596 0
5594 5596 0
-5394 -5590 -5597 0
5394 5597 0
5590 5597 0
5597 5596 5598 0
-5597 -5598 0
-5596 -5598 0
5598 5593 5599 0
-5598 -5599 0
-5593 -5599 0
-5599 -5588 -5510 0
5599 5510 0
5588 5510 0
-5502 -5480 -5511 0
5502 5480 -5511 0
5502 -5480 5511 0
-5502 5480 5511 0
-5503 -5363 -5512 0
5503 5512 0
5363 5512 0
-5502 -5481 -5513 0
5502 5481 -5513 0
5502 -5481 5513 0
-5502 5481 5513 0
-5503 -5367 -5514 0
5503 5514 0
5367 5514 0
-5502 -5482 -5515 0
5502 5482 -5515 0
5502 -5482 5515 0
-5502 5482 5515 0
-5503 -5371 -5516 0
5503 5516 0
5371 5516 0
-5502 -5483 -5517 0
5502 5483 -5517 0
5502 -5483 5517 0
-5502 5483 5517 0
-5503 -5375 -5518 0
5503 5518 0
5375 5518 0
-5503 -5379 -5519 0
5503 5519 0
5379 5519 0
-5503 -5383 -5520 0
5503 5520 0
5383 5520 0
-5503 -5387 -5521 0
5503 5521 0
5387 5521 0
-5504 -5493 -5522 0
5504 5522 0
5493 5522 0
-5505 -5494 -5523 0
5505 5523 0
5494 5523 0
-5506 -5495 -5524 0
5506 5524 0
5495 5524 0
-5507 -5496 -5525 0
5507 5525 0
5496 5525 0
-5509 -5497 -5526 0
5509 5526 0
5497 5526 0
-5511 -5498 -5527 0
5511 5527 0
5498 5527 0
-5513 -5499 -5528 0
5513 5528 0
5499 5528 0
-5515 -5500 -5529 0
5515 5529 0
5500 5529 0
-5517 -5501 -5530 0
5517 5530 0
5501 5530 0
-5522 -5523 -5524 -5525 -5526 -5527 -5528 -5529 -5530 5531 0
5522 -5531 0
5523 -5531 0
5524 -5531 0
5525 -5531 0
5526 -5531 0
5527 -5531 0
5528 -5531 0
5529 -5531 0
5530 -5531 0
5531 5532 0
-5531 -5532 0
5531 5403 0
-5531 -5403 0
-5357 -5532 -5533 0
5357 5533 0
5532 5533 0
-5532 -5361 -5534 0
5532 5534 0
5361 5534 0
-5532 -5365 -5535 0
5532 5535 0
5365 5535 0
-5532 -5369 -5536 0
5532 5536 0
5369 5536 0
-5532 -5373 -5537 0
5532 5537 0
5373 5537 0
-5532 -5377 -5538 0
5532 5538 0
5377 5538 0
-5532 -5381 -5539 0
5532 5539 0
5381 5539 0
-5532 -5385 -5540 0
5532 5540 0
5385 5540 0
-5532 -5388 -5541 0
5532 5541 0
5388 5541 0
-5354 -5462 -5508 -5533 -5542 0
5354 5542 0
5462 5542 0
5508 5542 0
5533 5542 0
-5464 -5510 -5534 -5358 -5543 0
5464 5543 0
5510 5543 0
5534 5543 0
5358 5543 0
-5466 -5512 -5535 -5362 -5544 0
5466 5544 0
5512 5544 0
5535 5544 0
5362 5544 0
-5468 -5514 -5536 -5366 -5545 0
5468 5545 0
5514 5545 0
5536 5545 0
5366 5545 0
-5469 -5516 -5537 -5370 -5546 0
5469 5546 0
5516 5546 0
5537 5546 0
5370 5546 0
-5470 -5518 -5538 -5374 -5547 0
5470 5547 0
5518 5547 0
5538 5547 0
5374 5547 0
-5471 -5519 -5539 -5378 -5548 0
5471 5548 0
5519 5548 0
5539 5548 0
5378 5548 0
-5472 -5520 -5540 -5382 -5549 0
5472 5549 0
5520 5549 0
5540 5549 0
5382 5549 0
-5473 -5521 -5541 -5386 -5550 0
5473 5550 0
5521 5550 0
5541 5550 0
5386 5550 0
5542 5551 0
-5542 -5551 0
-5543 -5544 -5545 -5546 -5547 -5548 -5549 -5550 5552 0
5543 -5552 0
5544 -5552 0
5545 -5552 0
5546 -5552 0
5547 -5552 0
5548 -5552 0
5549 -5552 0
5550 -5552 0
5545 5553 0
-5545 -5553 0
5547 5554 0
-5547 -5554 0
5548 5555 0
-5548 -5555 0
5549 5556 0
-5549 -5556 0
5551 5552 5404 0
-5551 -5404 0
-5552 -5404 0
-5544 -5553 -5557 0
5544 5557 0
5553 5557 0
-5544 -5545 -5554 -5546 -5558 0
5544 5558 0
5545 5558 0
5554 5558 0
5546 5558 0
-5546 -5545 -5555 -5559 0
5546 5559 0
5545 5559 0
5555 5559 0
-5544 -5545 -5548 -5556 -5560 0
5544 5560 0
5545 5560 0
5548 5560 0
5556 5560 0
-5543 -5544 -5557 -5546 -5405 0
5543 5405 0
5544 5405 0
5557 5405 0
5546 5405 0
-5543 -5544 -5558 -5559 -5406 0
5543 5406 0
5544 5406 0
5558 5406 0
5559 5406 0
-5543 -5557 -5558 -5560 -5407 0
5543 5407 0
5557 5407 0
5558 5407 0
5560 5407 0
c connect CB for 1st
37 -5389 0
-37 5389 0
38 -5390 0
-38 5390 0
39 -5391 0
-39 5391 0
40 -5392 0
-40 5392 0
41 -5393 0
-41 5393 0
42 -5394 0
-42 5394 0
43 -5395 0
-43 5395 0
44 -5396 0
-44 5396 0
45 -5397 0
-45 5397 0
46 -5398 0
-46 5398 0
47 -5399 0
-47 5399 0
48 -5400 0
-48 5400 0
c assign PI for 1st
-5353 0
-5354 0
5355 0
5356 0
5357 0
5358 0
5359 0
-5360 0
5361 0
-5362 0
5363 0
5364 0
5365 0
5366 0
5367 0
-5368 0
5369 0
-5370 0
5371 0
5372 0
5373 0
5374 0
5375 0
-5376 0
5377 0
-5378 0
5379 0
-5380 0
5381 0
5382 0
5383 0
-5384 0
5385 0
-5386 0
5387 0
5388 0
c assign PO for 1st
5401 0
-5402 0
-5403 0
5404 0
-5405 0
-5406 0
5407 0
c this is 2nd duplication
5639 5694 0
-5639 -5694 0
5640 5695 0
-5640 -5695 0
5642 5696 0
-5642 -5696 0
5644 5697 0
-5644 -5697 0
5646 5698 0
-5646 -5698 0
5648 5699 0
-5648 -5699 0
5650 5700 0
-5650 -5700 0
5652 5701 0
-5652 -5701 0
5654 5702 0
-5654 -5702 0
5656 5703 0
-5656 -5703 0
5658 5704 0
-5658 -5704 0
5660 5705 0
-5660 -5705 0
5662 5706 0
-5662 -5706 0
5664 5707 0
-5664 -5707 0
5666 5708 0
-5666 -5708 0
5668 5709 0
-5668 -5709 0
5670 5710 0
-5670 -5710 0
5672 5711 0
-5672 -5711 0
-5694 -5640 -5712 0
5694 5712 0
5640 5712 0
5641 5695 5713 0
-5641 -5713 0
-5695 -5713 0
5643 5695 5714 0
-5643 -5714 0
-5695 -5714 0
-5644 -5696 -5860 0
5644 5696 -5860 0
5644 -5696 5860 0
-5644 5696 5860 0
-5860 -5677 -5861 0
5860 5861 0
5677 5861 0
-5644 -5696 5862 0
5644 -5862 0
5696 -5862 0
5677 5863 0
-5677 -5863 0
5678 5864 0
-5678 -5864 0
-5864 -5863 -5865 0
5864 5865 0
5863 5865 0
5865 5862 5866 0
-5865 -5866 0
-5862 -5866 0
5696 5867 0
-5696 -5867 0
5644 5868 0
-5644 -5868 0
-5868 -5867 -5869 0
5868 5869 0
5867 5869 0
-5678 -5863 -5870 0
5678 5870 0
5863 5870 0
5870 5869 5871 0
-5870 -5871 0
-5869 -5871 0
5871 5866 5872 0
-5871 -5872 0
-5866 -5872 0
-5872 -5861 -5715 0
5872 5715 0
5861 5715 0
-5698 -5648 -5716 0
5698 5716 0
5648 5716 0
-5652 -5700 -5847 0
5652 5700 -5847 0
5652 -5700 5847 0
-5652 5700 5847 0
-5847 -5675 -5848 0
5847 5848 0
5675 5848 0
-5652 -5700 5849 0
5652 -5849 0
5700 -5849 0
5675 5850 0
-5675 -5850 0
5676 5851 0
-5676 -5851 0
-5851 -5850 -5852 0
5851 5852 0
5850 5852 0
5852 5849 5853 0
-5852 -5853 0
-5849 -5853 0
5700 5854 0
-5700 -5854 0
5652 5855 0
-5652 -5855 0
-5855 -5854 -5856 0
5855 5856 0
5854 5856 0
-5676 -5850 -5857 0
5676 5857 0
5850 5857 0
5857 5856 5858 0
-5857 -5858 0
-5856 -5858 0
5858 5853 5859 0
-5858 -5859 0
-5853 -5859 0
-5859 -5848 -5717 0
5859 5717 0
5848 5717 0
-5702 -5656 -5718 0
5702 5718 0
5656 5718 0
-5704 -5660 -5719 0
5704 5719 0
5660 5719 0
-5706 -5664 -5720 0
5706 5720 0
5664 5720 0
-5708 -5668 -5721 0
5708 5721 0
5668 5721 0
-5710 -5672 -5722 0
5710 5722 0
5672 5722 0
5645 5697 5723 0
-5645 -5723 0
-5697 -5723 0
5647 5697 5724 0
-5647 -5724 0
-5697 -5724 0
5649 5699 5725 0
-5649 -5725 0
-5699 -5725 0
5651 5699 5726 0
-5651 -5726 0
-5699 -5726 0
5653 5701 5727 0
-5653 -5727 0
-5701 -5727 0
-5701 -5655 -5886 0
5701 5655 -5886 0
5701 -5655 5886 0
-5701 5655 5886 0
-5886 -5681 -5887 0
5886 5887 0
5681 5887 0
-5701 -5655 5888 0
5701 -5888 0
5655 -5888 0
5681 5889 0
-5681 -5889 0
5682 5890 0
-5682 -5890 0
-5890 -5889 -5891 0
5890 5891 0
5889 5891 0
5891 5888 5892 0
-5891 -5892 0
-5888 -5892 0
5655 5893 0
-5655 -5893 0
5701 5894 0
-5701 -5894 0
-5894 -5893 -5895 0
5894 5895 0
5893 5895 0
-5682 -5889 -5896 0
5682 5896 0
5889 5896 0
5896 5895 5897 0
-5896 -5897 0
-5895 -5897 0
5897 5892 5898 0
-5897 -5898 0
-5892 -5898 0
-5898 -5887 -5728 0
5898 5728 0
5887 5728 0
5657 5703 5729 0
-5657 -5729 0
-5703 -5729 0
5659 5703 5730 0
-5659 -5730 0
-5703 -5730 0
5661 5705 5731 0
-5661 -5731 0
-5705 -5731 0
5663 5705 5732 0
-5663 -5732 0
-5705 -5732 0
5665 5707 5733 0
-5665 -5733 0
-5707 -5733 0
5667 5707 5734 0
-5667 -5734 0
-5707 -5734 0
5669 5709 5735 0
-5669 -5735 0
-5709 -5735 0
5671 5709 5736 0
-5671 -5736 0
-5709 -5736 0
5673 5711 5737 0
-5673 -5737 0
-5711 -5737 0
5674 5711 5738 0
-5674 -5738 0
-5711 -5738 0
-5712 -5715 -5716 -5717 -5718 -5719 -5720 -5721 -5722 5739 0
5712 -5739 0
5715 -5739 0
5716 -5739 0
5717 -5739 0
5718 -5739 0
5719 -5739 0
5720 -5739 0
5721 -5739 0
5722 -5739 0
5739 5740 0
-5739 -5740 0
5739 5741 0
-5739 -5741 0
5739 5687 0
-5739 -5687 0
-5740 -5712 -5742 0
5740 5712 -5742 0
5740 -5712 5742 0
-5740 5712 5742 0
-5740 -5715 -5743 0
5740 5715 -5743 0
5740 -5715 5743 0
-5740 5715 5743 0
-5740 -5716 -5744 0
5740 5716 -5744 0
5740 -5716 5744 0
-5740 5716 5744 0
-5740 -5717 -5745 0
5740 5717 -5745 0
5740 -5717 5745 0
-5740 5717 5745 0
-5740 -5718 -5746 0
5740 5718 -5746 0
5740 -5718 5746 0
-5740 5718 5746 0
-5740 -5719 -5747 0
5740 5719 -5747 0
5740 -5719 5747 0
-5740 5719 5747 0
-5639 -5741 -5748 0
5639 5748 0
5741 5748 0
-5740 -5720 -5749 0
5740 5720 -5749 0
5740 -5720 5749 0
-5740 5720 5749 0
-5741 -5642 -5750 0
5741 5750 0
5642 5750 0
-5740 -5721 -5751 0
5740 5721 -5751 0
5740 -5721 5751 0
-5740 5721 5751 0
-5741 -5646 -5752 0
5741 5752 0
5646 5752 0
-5740 -5722 -5753 0
5740 5722 -5753 0
5740 -5722 5753 0
-5740 5722 5753 0
-5741 -5650 -5754 0
5741 5754 0
5650 5754 0
-5741 -5654 -5755 0
5741 5755 0
5654 5755 0
-5741 -5658 -5756 0
5741 5756 0
5658 5756 0
-5741 -5662 -5757 0
5741 5757 0
5662 5757 0
-5741 -5666 -5758 0
5741 5758 0
5666 5758 0
-5741 -5670 -5759 0
5741 5759 0
5670 5759 0
-5713 -5742 -5912 0
5713 5742 -5912 0
5713 -5742 5912 0
-5713 5742 5912 0
-5912 -5685 -5913 0
5912 5913 0
5685 5913 0
-5713 -5742 5914 0
5713 -5914 0
5742 -5914 0
5685 5915 0
-5685 -5915 0
5686 5916 0
-5686 -5916 0
-5916 -5915 -5917 0
5916 5917 0
5915 5917 0
5917 5914 5918 0
-5917 -5918 0
-5914 -5918 0
5742 5919 0
-5742 -5919 0
5713 5920 0
-5713 -5920 0
-5920 -5919 -5921 0
5920 5921 0
5919 5921 0
-5686 -5915 -5922 0
5686 5922 0
5915 5922 0
5922 5921 5923 0
-5922 -5923 0
-5921 -5923 0
5923 5918 5924 0
-5923 -5924 0
-5918 -5924 0
-5924 -5913 -5760 0
5924 5760 0
5913 5760 0
-5742 -5714 -5761 0
5742 5761 0
5714 5761 0
-5743 -5723 -5762 0
5743 5762 0
5723 5762 0
-5744 -5725 -5763 0
5744 5763 0
5725 5763 0
-5745 -5727 -5764 0
5745 5764 0
5727 5764 0
-5746 -5729 -5765 0
5746 5765 0
5729 5765 0
-5747 -5731 -5766 0
5747 5766 0
5731 5766 0
-5749 -5733 -5767 0
5749 5767 0
5733 5767 0
-5751 -5735 -5768 0
5751 5768 0
5735 5768 0
-5737 -5753 -5899 0
5737 5753 -5899 0
5737 -5753 5899 0
-5737 5753 5899 0
-5899 -5683 -5900 0
5899 5900 0
5683 5900 0
-5737 -5753 5901 0
5737 -5901 0
5753 -5901 0
5683 5902 0
-5683 -5902 0
5684 5903 0
-5684 -5903 0
-5903 -5902 -5904 0
5903 5904 0
5902 5904 0
5904 5901 5905 0
-5904 -5905 0
-5901 -5905 0
5753 5906 0
-5753 -5906 0
5737 5907 0
-5737 -5907 0
-5907 -5906 -5908 0
5907 5908 0
5906 5908 0
-5684 -5902 -5909 0
5684 5909 0
5902 5909 0
5909 5908 5910 0
-5909 -5910 0
-5908 -5910 0
5910 5905 5911 0
-5910 -5911 0
-5905 -5911 0
-5911 -5900 -5769 0
5911 5769 0
5900 5769 0
-5743 -5724 -5770 0
5743 5770 0
5724 5770 0
-5744 -5726 -5771 0
5744 5771 0
5726 5771 0
-5745 -5728 -5772 0
5745 5772 0
5728 5772 0
-5746 -5730 -5773 0
5746 5773 0
5730 5773 0
-5747 -5732 -5774 0
5747 5774 0
5732 5774 0
-5749 -5734 -5775 0
5749 5775 0
5734 5775 0
-5751 -5736 -5776 0
5751 5776 0
5736 5776 0
-5753 -5738 -5777 0
5753 5777 0
5738 5777 0
-5760 -5762 -5763 -5764 -5765 -5766 -5767 -5768 -5769 5778 0
5760 -5778 0
5762 -5778 0
5763 -5778 0
5764 -5778 0
5765 -5778 0
5766 -5778 0
5767 -5778 0
5768 -5778 0
5769 -5778 0
5761 5779 0
-5761 -5779 0
5770 5780 0
-5770 -5780 0
5771 5781 0
-5771 -5781 0
5772 5782 0
-5772 -5782 0
5773 5783 0
-5773 -5783 0
5774 5784 0
-5774 -5784 0
5775 5785 0
-5775 -5785 0
5776 5786 0
-5776 -5786 0
5777 5787 0
-5777 -5787 0
5778 5788 0
-5778 -5788 0
5778 5789 0
-5778 -5789 0
5778 5688 0
-5778 -5688 0
-5788 -5760 -5790 0
5788 5760 -5790 0
5788 -5760 5790 0
-5788 5760 5790 0
-5788 -5762 -5791 0
5788 5762 -5791 0
5788 -5762 5791 0
-5788 5762 5791 0
-5788 -5763 -5792 0
5788 5763 -5792 0
5788 -5763 5792 0
-5788 5763 5792 0
-5788 -5764 -5793 0
5788 5764 -5793 0
5788 -5764 5793 0
-5788 5764 5793 0
-5641 -5789 -5794 0
5641 5794 0
5789 5794 0
-5788 -5765 -5795 0
5788 5765 -5795 0
5788 -5765 5795 0
-5788 5765 5795 0
-5645 -5789 -5873 0
5645 5789 -5873 0
5645 -5789 5873 0
-5645 5789 5873 0
-5873 -5679 -5874 0
5873 5874 0
5679 5874 0
-5645 -5789 5875 0
5645 -5875 0
5789 -5875 0
5679 5876 0
-5679 -5876 0
5680 5877 0
-5680 -5877 0
-5877 -5876 -5878 0
5877 5878 0
5876 5878 0
5878 5875 5879 0
-5878 -5879 0
-5875 -5879 0
5789 5880 0
-5789 -5880 0
5645 5881 0
-5645 -5881 0
-5881 -5880 -5882 0
5881 5882 0
5880 5882 0
-5680 -5876 -5883 0
5680 5883 0
5876 5883 0
5883 5882 5884 0
-5883 -5884 0
-5882 -5884 0
5884 5879 5885 0
-5884 -5885 0
-5879 -5885 0
-5885 -5874 -5796 0
5885 5796 0
5874 5796 0
-5788 -5766 -5797 0
5788 5766 -5797 0
5788 -5766 5797 0
-5788 5766 5797 0
-5789 -5649 -5798 0
5789 5798 0
5649 5798 0
-5788 -5767 -5799 0
5788 5767 -5799 0
5788 -5767 5799 0
-5788 5767 5799 0
-5789 -5653 -5800 0
5789 5800 0
5653 5800 0
-5788 -5768 -5801 0
5788 5768 -5801 0
5788 -5768 5801 0
-5788 5768 5801 0
-5789 -5657 -5802 0
5789 5802 0
5657 5802 0
-5788 -5769 -5803 0
5788 5769 -5803 0
5788 -5769 5803 0
-5788 5769 5803 0
-5789 -5661 -5804 0
5789 5804 0
5661 5804 0
-5789 -5665 -5805 0
5789 5805 0
5665 5805 0
-5789 -5669 -5806 0
5789 5806 0
5669 5806 0
-5789 -5673 -5807 0
5789 5807 0
5673 5807 0
-5790 -5779 -5808 0
5790 5808 0
5779 5808 0
-5791 -5780 -5809 0
5791 5809 0
5780 5809 0
-5792 -5781 -5810 0
5792 5810 0
5781 5810 0
-5793 -5782 -5811 0
5793 5811 0
5782 5811 0
-5795 -5783 -5812 0
5795 5812 0
5783 5812 0
-5797 -5784 -5813 0
5797 5813 0
5784 5813 0
-5799 -5785 -5814 0
5799 5814 0
5785 5814 0
-5801 -5786 -5815 0
5801 5815 0
5786 5815 0
-5803 -5787 -5816 0
5803 5816 0
5787 5816 0
-5808 -5809 -5810 -5811 -5812 -5813 -5814 -5815 -5816 5817 0
5808 -5817 0
5809 -5817 0
5810 -5817 0
5811 -5817 0
5812 -5817 0
5813 -5817 0
5814 -5817 0
5815 -5817 0
5816 -5817 0
5817 5818 0
-5817 -5818 0
5817 5689 0
-5817 -5689 0
-5643 -5818 -5819 0
5643 5819 0
5818 5819 0
-5818 -5647 -5820 0
5818 5820 0
5647 5820 0
-5818 -5651 -5821 0
5818 5821 0
5651 5821 0
-5818 -5655 -5822 0
5818 5822 0
5655 5822 0
-5818 -5659 -5823 0
5818 5823 0
5659 5823 0
-5818 -5663 -5824 0
5818 5824 0
5663 5824 0
-5818 -5667 -5825 0
5818 5825 0
5667 5825 0
-5818 -5671 -5826 0
5818 5826 0
5671 5826 0
-5818 -5674 -5827 0
5818 5827 0
5674 5827 0
-5640 -5748 -5794 -5819 -5828 0
5640 5828 0
5748 5828 0
5794 5828 0
5819 5828 0
-5750 -5796 -5820 -5644 -5829 0
5750 5829 0
5796 5829 0
5820 5829 0
5644 5829 0
-5752 -5798 -5821 -5648 -5830 0
5752 5830 0
5798 5830 0
5821 5830 0
5648 5830 0
-5754 -5800 -5822 -5652 -5831 0
5754 5831 0
5800 5831 0
5822 5831 0
5652 5831 0
-5755 -5802 -5823 -5656 -5832 0
5755 5832 0
5802 5832 0
5823 5832 0
5656 5832 0
-5756 -5804 -5824 -5660 -5833 0
5756 5833 0
5804 5833 0
5824 5833 0
5660 5833 0
-5757 -5805 -5825 -5664 -5834 0
5757 5834 0
5805 5834 0
5825 5834 0
5664 5834 0
-5758 -5806 -5826 -5668 -5835 0
5758 5835 0
5806 5835 0
5826 5835 0
5668 5835 0
-5759 -5807 -5827 -5672 -5836 0
5759 5836 0
5807 5836 0
5827 5836 0
5672 5836 0
5828 5837 0
-5828 -5837 0
-5829 -5830 -5831 -5832 -5833 -5834 -5835 -5836 5838 0
5829 -5838 0
5830 -5838 0
5831 -5838 0
5832 -5838 0
5833 -5838 0
5834 -5838 0
5835 -5838 0
5836 -5838 0
5831 5839 0
-5831 -5839 0
5833 5840 0
-5833 -5840 0
5834 5841 0
-5834 -5841 0
5835 5842 0
-5835 -5842 0
5837 5838 5690 0
-5837 -5690 0
-5838 -5690 0
-5830 -5839 -5843 0
5830 5843 0
5839 5843 0
-5830 -5831 -5840 -5832 -5844 0
5830 5844 0
5831 5844 0
5840 5844 0
5832 5844 0
-5832 -5831 -5841 -5845 0
5832 5845 0
5831 5845 0
5841 5845 0
-5830 -5831 -5834 -5842 -5846 0
5830 5846 0
5831 5846 0
5834 5846 0
5842 5846 0
-5829 -5830 -5843 -5832 -5691 0
5829 5691 0
5830 5691 0
5843 5691 0
5832 5691 0
-5829 -5830 -5844 -5845 -5692 0
5829 5692 0
5830 5692 0
5844 5692 0
5845 5692 0
-5829 -5843 -5844 -5846 -5693 0
5829 5693 0
5843 5693 0
5844 5693 0
5846 5693 0
c connect CB fot 2nd
323 -5675 0
-323 5675 0
324 -5676 0
-324 5676 0
325 -5677 0
-325 5677 0
326 -5678 0
-326 5678 0
327 -5679 0
-327 5679 0
328 -5680 0
-328 5680 0
329 -5681 0
-329 5681 0
330 -5682 0
-330 5682 0
331 -5683 0
-331 5683 0
332 -5684 0
-332 5684 0
333 -5685 0
-333 5685 0
334 -5686 0
-334 5686 0
c assign PI for 2nd
-5639 0
-5640 0
5641 0
5642 0
5643 0
5644 0
5645 0
-5646 0
5647 0
-5648 0
5649 0
5650 0
5651 0
5652 0
5653 0
-5654 0
5655 0
-5656 0
5657 0
5658 0
5659 0
5660 0
5661 0
-5662 0
5663 0
-5664 0
5665 0
-5666 0
5667 0
5668 0
5669 0
-5670 0
5671 0
-5672 0
5673 0
5674 0
c assign PO for 2nd
5687 0
-5688 0
-5689 0
5690 0
-5691 0
-5692 0
5693 0
